Problem:    
Rows:       248
Columns:    89 (72 integer, 72 binary)
Non-zeros:  820
Status:     INTEGER OPTIMAL
Objective:  value = 90.358266 (MINimum)

   No.   Row name        Activity     Lower bound   Upper bound
------ ------------    ------------- ------------- -------------
     1 r.5                   2090.36             0               
     2 r.6                     -1986      -1990.37               
     3 r.7                   90.3583             0               
     4 r.8                   -1942.9      -1988.02               
     5 r.9                   90.3583             0               
     6 r.10                 -1919.64      -1989.79               
     7 r.11                  2090.36             0               
     8 r.12                 -1960.88      -1988.01               
     9 r.13                  2090.36             0               
    10 r.14                 -1957.88      -1983.86               
    11 r.15                  90.3583             0               
    12 r.16                  11.5466      -1983.27               
    13 r.17                  2090.36             0               
    14 r.18                 -1975.52      -1991.01               
    15 r.19                  90.3583             0               
    16 r.20                  11.5466      -1987.99               
    17 r.21                  90.3583             0               
    18 r.22                  10.3703      -1991.93               
    19 r.23                  2090.36             0               
    20 r.24                 -1984.87      -1990.41               
    21 r.25                  90.3583             0               
    22 r.26                  68.6412      -1978.09               
    23 r.27                  2090.36             0               
    24 r.28                 -1909.64      -1990.18               
    25 r.29                  2090.36             0               
    26 r.30                 -1909.64      -1978.28               
    27 r.31                  90.3583             0               
    28 r.32                  42.1225      -1990.17               
    29 r.33                  90.3583             0               
    30 r.34                   3.3895      -1998.51               
    31 r.35                  2090.36             0               
    32 r.36                 -1996.61      -1996.61               
    33 r.37                        1             1             = 
    34 r.38                        1             1             = 
    35 r.39                        1             1             = 
    36 r.40                        1             1             = 
    37 r.41                        1             1             = 
    38 r.42                        1             1             = 
    39 r.43                        1             1             = 
    40 r.44                        1             1             = 
    41 r.45                  64.8589       10.2147               
    42 r.46                 -63.3589      -1990.37               
    43 r.47                  1985.02       11.9909               
    44 r.48                 -1988.02      -1988.02               
    45 r.49                  26.6255       16.1387               
    46 r.50                 -26.6255      -1990.37               
    47 r.51                  1957.45       16.7303               
    48 r.52                 -1957.45      -1988.02               
    49 r.53                  8.98681       8.98681               
    50 r.54                 -8.98681      -1990.37               
    51 r.55                  1957.45       12.0124               
    52 r.56                 -1957.45      -1988.02               
    53 r.57                  1991.87       8.07457               
    54 r.58                 -1988.87      -1990.37               
    55 r.59                  1967.03         9.585               
    56 r.60                 -1973.03      -1988.02               
    57 r.61                  53.1442      -1951.57               
    58 r.62                 -1925.14      -1937.14               
    59 r.63                  2014.54      -1951.57               
    60 r.64                  36.2571      -1937.14               
    61 r.65                  74.8613       21.7171               
    62 r.66                 -74.8613      -1990.37               
    63 r.67                  1988.02        9.8256               
    64 r.68                 -1988.02      -1988.02               
    65 r.69                 -1987.89      -1988.87               
    66 r.70                 -1949.29      -1985.02               
    67 r.71                 -1987.89      -1988.87               
    68 r.72                 -1949.29      -1985.02               
    69 r.73                  1935.14        9.6267               
    70 r.74                 -1936.64      -1989.79               
    71 r.75                  14.9787       11.9787               
    72 r.76                 -11.9787      -1988.01               
    73 r.77                  1963.27       16.1387               
    74 r.78                 -1963.27      -1989.79               
    75 r.79                  1969.42       16.7303               
    76 r.80                 -1969.42      -1988.01               
    77 r.81                  1945.63       8.98681               
    78 r.82                 -1945.63      -1989.79               
    79 r.83                  1969.42       12.0124               
    80 r.84                 -1969.42      -1988.01               
    81 r.85                  1928.51       8.07457               
    82 r.86                 -1925.51      -1989.79               
    83 r.87                  1979.01         9.585               
    84 r.88                 -1985.01      -1988.01               
    85 r.89                  1989.79        21.912               
    86 r.90                 -1989.79      -1989.79               
    87 r.91                  48.2358        9.8231               
    88 r.92                 -48.2358      -1988.01               
    89 r.93                  11.5024      -1951.76               
    90 r.94                  1963.27      -1937.14               
    91 r.95                 -1951.76      -1951.76               
    92 r.96                        0      -1937.14               
    93 r.97                 -1924.53      -1988.29               
    94 r.98                 -1961.27      -1985.01               
    95 r.99                 -1924.53      -1988.29               
    96 r.100                -1961.27      -1985.01               
    97 r.101                 1971.87        9.6267               
    98 r.102                -1973.37      -1983.86               
    99 r.103                 45.5546       11.9787               
   100 r.104                -42.5546      -1983.27               
   101 r.105                 38.2333       10.2147               
   102 r.106                -36.7333      -1983.86               
   103 r.107                 27.5759       11.9909               
   104 r.108                -30.5759      -1983.27               
   105 r.109                -1982.36      -1982.36               
   106 r.110                -12.9372      -1980.27               
   107 r.111                -1969.42      -1982.36               
   108 r.112                       0      -1980.27               
   109 r.113                 1965.25       8.07457               
   110 r.114                -1962.25      -1983.86               
   111 r.115                   9.585         9.585               
   112 r.116                 -15.585      -1983.27               
   113 r.117                 26.5187        21.912               
   114 r.118                -26.5187      -1983.86               
   115 r.119                 78.8117        9.8231               
   116 r.120                -78.8117      -1983.27               
   117 r.121                -1951.76      -1951.76               
   118 r.122                       0      -1937.14               
   119 r.123                -1921.19      -1951.76               
   120 r.124                 30.5759      -1937.14               
   121 r.125                -1961.27      -1982.36               
   122 r.126                 8.15708      -1980.27               
   123 r.127                -1961.27      -1982.36               
   124 r.128                 8.15708      -1980.27               
   125 r.129                 1989.51        9.6267               
   126 r.130                -1991.01      -1991.01               
   127 r.131                 45.5546       11.9787               
   128 r.132                -42.5546      -1987.99               
   129 r.133                  55.872       10.2147               
   130 r.134                 -54.372      -1991.01               
   131 r.135                 27.5759       11.9909               
   132 r.136                -30.5759      -1987.99               
   133 r.137                -1982.36      -1982.36               
   134 r.138                -12.9372      -1980.27               
   135 r.139                -1969.42      -1982.36               
   136 r.140                       0      -1980.27               
   137 r.141                 1982.89       8.07457               
   138 r.142                -1979.89      -1991.01               
   139 r.143                   9.585         9.585               
   140 r.144                 -15.585      -1987.99               
   141 r.145                 44.1574        21.912               
   142 r.146                -44.1574      -1991.01               
   143 r.147                 78.8117        9.8231               
   144 r.148                -78.8117      -1987.99               
   145 r.149                -1934.13      -1951.76               
   146 r.150                 17.6387      -1937.14               
   147 r.151                -1921.19      -1951.76               
   148 r.152                 30.5759      -1937.14               
   149 r.153                -1978.91      -1978.91               
   150 r.154                 8.15708      -1963.77               
   151 r.155                -1978.91      -1978.91               
   152 r.156                 8.15708      -1963.77               
   153 r.157                  9.6267        9.6267               
   154 r.158                -11.1267      -1991.93               
   155 r.159                 29.9696       11.9787               
   156 r.160                -26.9696      -1990.41               
   157 r.161                 75.9856       10.2147               
   158 r.162                -74.4856      -1991.93               
   159 r.163                 11.9909       11.9909               
   160 r.164                -14.9909      -1990.41               
   161 r.165                 37.7522       16.1387               
   162 r.166                -37.7522      -1991.93               
   163 r.167                 1984.41       16.7303               
   164 r.168                -1984.41      -1990.41               
   165 r.169                 20.1135       8.98681               
   166 r.170                -20.1135      -1991.93               
   167 r.171                 1984.41       12.0124               
   168 r.172                -1984.41      -1990.41               
   169 r.173                 64.2709      -1951.57               
   170 r.174                -1914.01      -1937.14               
   171 r.175                 41.5096      -1951.57               
   172 r.176                -1936.77      -1937.14               
   173 r.177                -1914.01      -1951.76               
   174 r.178                 37.7522      -1937.14               
   175 r.179                -1936.77      -1951.76               
   176 r.180                 14.9909      -1937.14               
   177 r.181                0.980773      -1988.93               
   178 r.182                -1976.26      -1984.41               
   179 r.183                0.980773      -1988.93               
   180 r.184                -1976.26      -1984.41               
   181 r.185                 53.1442      -1951.57               
   182 r.186                -1925.14      -1937.14               
   183 r.187                 2014.54      -1951.57               
   184 r.188                 36.2571      -1937.14               
   185 r.189                 11.7147       10.2147               
   186 r.190                -10.2147      -1978.09               
   187 r.191                 1948.76       11.9909               
   188 r.192                -1951.76      -1990.18               
   189 r.193                 1973.48       16.1387               
   190 r.194                -1973.48      -1978.09               
   191 r.195                 1921.19       16.7303               
   192 r.196                -1921.19      -1990.18               
   193 r.197                 1955.84       8.98681               
   194 r.198                -1955.84      -1978.09               
   195 r.199                 1921.19       12.0124               
   196 r.200                -1921.19      -1990.18               
   197 r.201                 64.2709      -1951.57               
   198 r.202                -1914.01      -1937.14               
   199 r.203                 41.5096      -1951.57               
   200 r.204                -1936.77      -1937.14               
   201 r.205                 21.7171       21.7171               
   202 r.206                -21.7171      -1978.09               
   203 r.207                 1951.76        9.8256               
   204 r.208                -1951.76      -1990.18               
   205 r.209                 1923.64        9.6267               
   206 r.210                -1925.14      -1978.28               
   207 r.211                 14.9787       11.9787               
   208 r.212                -11.9787      -1990.17               
   209 r.213                 11.5024      -1951.76               
   210 r.214                 1963.27      -1937.14               
   211 r.215                -1951.76      -1951.76               
   212 r.216                       0      -1937.14               
   213 r.217                -1951.76      -1951.76               
   214 r.218                       0      -1937.14               
   215 r.219                -1921.19      -1951.76               
   216 r.220                 30.5759      -1937.14               
   217 r.221                -1934.13      -1951.76               
   218 r.222                 17.6387      -1937.14               
   219 r.223                -1921.19      -1951.76               
   220 r.224                 30.5759      -1937.14               
   221 r.225                -1914.01      -1951.76               
   222 r.226                 37.7522      -1937.14               
   223 r.227                -1936.77      -1951.76               
   224 r.228                 14.9909      -1937.14               
   225 r.229                 1978.28        21.912               
   226 r.230                -1978.28      -1978.28               
   227 r.231                 48.2358        9.8231               
   228 r.232                -48.2358      -1990.17               
   229 r.233                -1987.89      -1988.87               
   230 r.234                -1949.29      -1985.02               
   231 r.235                -1987.89      -1988.87               
   232 r.236                -1949.29      -1985.02               
   233 r.237                -1924.53      -1988.29               
   234 r.238                -1961.27      -1985.01               
   235 r.239                -1924.53      -1988.29               
   236 r.240                -1961.27      -1985.01               
   237 r.241                -1961.27      -1982.36               
   238 r.242                 8.15708      -1980.27               
   239 r.243                -1961.27      -1982.36               
   240 r.244                 8.15708      -1980.27               
   241 r.245                -1978.91      -1978.91               
   242 r.246                 8.15708      -1963.77               
   243 r.247                -1978.91      -1978.91               
   244 r.248                 8.15708      -1963.77               
   245 r.249                0.980773      -1988.93               
   246 r.250                -1976.26      -1984.41               
   247 r.251                0.980773      -1988.93               
   248 r.252                -1976.26      -1984.41               

   No. Column name       Activity     Lower bound   Upper bound
------ ------------    ------------- ------------- -------------
     1 tt                    90.3583             0               
     2 s_1_1        *              1             0             1 
     3 t_1_1                 74.8613             0               
     4 s_1_6        *              0             0             1 
     5 s_2_1        *              0             0             1 
     6 t_2_1                 2036.26             0               
     7 s_2_6        *              1             0             1 
     8 s_1_2        *              0             0             1 
     9 t_1_2                  2011.5             0               
    10 s_1_7        *              1             0             1 
    11 s_2_2        *              1             0             1 
    12 t_2_2                 48.2358             0               
    13 s_2_7        *              0             0             1 
    14 s_1_3        *              1             0             1 
    15 t_1_3                 48.2358             0               
    16 s_2_3        *              0             0             1 
    17 t_2_3                 78.8117             0               
    18 s_1_4        *              1             0             1 
    19 t_1_4                 65.8745             0               
    20 s_2_4        *              0             0             1 
    21 t_2_4                 78.8117             0               
    22 s_1_5        *              0             0             1 
    23 t_1_5                  85.988             0               
    24 s_2_5        *              1             0             1 
    25 t_2_5                 63.2267             0               
    26 t_1_6                 21.7171             0               
    27 t_2_6                       0             0               
    28 t_1_7                       0             0               
    29 t_2_7                 48.2358             0               
    30 s_1_8        *              0             0             1 
    31 t_1_8                 86.9688             0               
    32 s_2_8        *              1             0             1 
    33 t_2_8                 86.9688             0               
    34 u_1_1_2      *              1             0             1 
    35 u_2_1_2      *              0             0             1 
    36 u_1_1_3      *              0             0             1 
    37 u_2_1_3      *              0             0             1 
    38 u_1_1_4      *              0             0             1 
    39 u_2_1_4      *              0             0             1 
    40 u_1_1_5      *              1             0             1 
    41 u_2_1_5      *              0             0             1 
    42 u_1_1_7      *              0             0             1 
    43 u_2_1_7      *              0             0             1 
    44 u_1_2_1      *              0             0             1 
    45 u_2_2_1      *              1             0             1 
    46 u_1_2_3      *              0             0             1 
    47 u_2_2_3      *              1             0             1 
    48 u_1_2_4      *              0             0             1 
    49 u_2_2_4      *              1             0             1 
    50 u_1_2_5      *              0             0             1 
    51 u_2_2_5      *              1             0             1 
    52 u_1_2_6      *              0             0             1 
    53 u_2_2_6      *              0             0             1 
    54 u_1_3_1      *              1             0             1 
    55 u_2_3_1      *              1             0             1 
    56 u_1_3_2      *              1             0             1 
    57 u_2_3_2      *              0             0             1 
    58 u_1_3_5      *              1             0             1 
    59 u_2_3_5      *              0             0             1 
    60 u_1_3_6      *              0             0             1 
    61 u_2_3_6      *              0             0             1 
    62 u_1_4_1      *              1             0             1 
    63 u_2_4_1      *              1             0             1 
    64 u_1_4_2      *              1             0             1 
    65 u_2_4_2      *              0             0             1 
    66 u_1_4_5      *              1             0             1 
    67 u_2_4_5      *              0             0             1 
    68 u_1_4_6      *              0             0             1 
    69 u_2_4_6      *              0             0             1 
    70 u_1_5_1      *              0             0             1 
    71 u_2_5_1      *              1             0             1 
    72 u_1_5_2      *              1             0             1 
    73 u_2_5_2      *              0             0             1 
    74 u_1_5_3      *              0             0             1 
    75 u_2_5_3      *              1             0             1 
    76 u_1_5_4      *              0             0             1 
    77 u_2_5_4      *              1             0             1 
    78 u_1_6_2      *              1             0             1 
    79 u_2_6_2      *              1             0             1 
    80 u_1_6_3      *              1             0             1 
    81 u_2_6_3      *              1             0             1 
    82 u_1_6_4      *              1             0             1 
    83 u_2_6_4      *              1             0             1 
    84 u_1_6_7      *              0             0             1 
    85 u_2_6_7      *              1             0             1 
    86 u_1_7_1      *              1             0             1 
    87 u_2_7_1      *              1             0             1 
    88 u_1_7_6      *              1             0             1 
    89 u_2_7_6      *              0             0             1 

Integer feasibility conditions:

KKT.PE: max.abs.err = 4.55e-13 on row 8
        max.rel.err = 1.11e-16 on row 72
        High quality

KKT.PB: max.abs.err = 2.27e-13 on row 32
        max.rel.err = 1.07e-15 on row 49
        High quality

End of output
